p cnf 49 166
-1 2 0
1 2 0
-1 -2 -3 0
1 2 -3 0
-1 2 3 0
1 -2 3 0
-5 -3 0
-5 -4 0
3 4 5 0
8 6 0
8 7 0
-6 -7 -8 0
-9 5 0
-9 8 0
-5 -8 9 0
11 10 0
11 -3 0
-10 3 -11 0
13 12 0
13 10 0
-12 -10 -13 0
-14 -7 0
-14 13 0
7 -13 14 0
-15 -11 0
-15 14 0
11 -14 15 0
1 12 -16 0
-1 -12 -16 0
1 -12 16 0
-1 12 16 0
18 7 0
18 -17 0
-7 17 -18 0
-20 -18 0
-20 19 0
18 -19 20 0
21 -16 0
21 20 0
16 -20 -21 0
12 4 -22 0
-12 -4 -22 0
12 -4 22 0
-12 4 22 0
23 -21 0
23 22 0
21 -22 -23 0
-24 -15 0
-24 -23 0
15 23 24 0
25 -9 0
25 -24 0
9 24 -25 0
-26 3 0
-26 -13 0
-3 13 26 0
-27 25 0
-27 -26 0
-25 26 27 0
-28 -19 0
-28 -16 0
19 16 28 0
19 13 -29 0
-19 -13 -29 0
19 -13 29 0
-19 13 29 0
30 -29 0
30 2 0
29 -2 -30 0
31 -28 0
31 -30 0
28 30 -31 0
-32 -13 0
-32 -29 0
13 29 32 0
2 33 -34 0
-2 -33 -34 0
2 -33 34 0
-2 33 34 0
-34 7 -35 0
34 -7 -35 0
-34 -7 35 0
34 7 35 0
36 -32 0
36 -35 0
32 35 -36 0
-37 31 0
-37 36 0
-31 -36 37 0
-38 20 -39 0
38 -20 -39 0
-38 -20 39 0
38 20 39 0
40 37 0
40 39 0
-37 -39 -40 0
27 -40 -41 0
-27 40 -41 0
27 40 41 0
-27 -40 41 0
-38 29 -42 0
38 -29 -42 0
-38 -29 42 0
38 29 42 0
-43 1 0
-43 -17 0
-1 17 43 0
-44 42 0
-44 43 0
-42 -43 44 0
42 12 -45 0
-42 -12 -45 0
42 -12 45 0
-42 12 45 0
-46 4 0
-46 -19 0
-4 19 46 0
-47 45 0
-47 -46 0
-45 46 47 0
44 47 -48 0
-44 -47 -48 0
44 -47 48 0
-44 47 48 0
49 -41 0
49 -48 0
41 48 -49 0
9 24 -5 1 -48 0
-37 -44 -22 47 35 0
38 49 33 0
-28 42 -17 -6 0
15 -34 2 -14 0
-39 -46 26 0
44 20 -2 -37 0
14 12 0
3 11 21 -8 -41 -32 0
-37 43 46 13 14 0
39 -16 37 -43 -14 35 0
32 2 18 0
23 49 -47 21 9 0
-25 6 40 0
-11 -15 -20 17 40 -46 0
30 1 -49 0
-35 -33 17 0
-20 9 -16 -12 -39 0
47 -14 0
-43 2 -3 -47 -38 0
-9 -43 0
-37 -8 26 -21 -24 0
48 20 -5 0
33 49 3 -21 0
6 0
46 -7 -15 29 31 0
-3 16 26 -14 -18 -44 0
2 10 0
-40 -13 -24 0
-49 -24 0
-29 16 -11 -15 41 0
21 35 0
42 -47 38 0
-29 39 2 48 14 0
-4 -36 2 18 10 0
24 -16 -11 -38 0
41 23 -27 22 0
-13 32 0
49 0
